10
1 1
2 4
3 10
4 2
5 3
6 4
7 8
8 7
9 1
29
0 1 92
1 0 92
0 2 29
2 0 29
0 3 14
3 0 14
0 4 26
4 0 26
0 5 62
5 0 62
0 6 2
6 0 2
0 7 60
7 0 60
0 8 71
8 0 71
0 9 39
9 0 39
1 5 81
1 8 17
2 3 30
2 7 88
2 8 4
3 6 71
3 8 97
4 7 89
5 9 4
7 8 30
7 9 22
